NAME: tsp50_17
COMMENT: 50-tsp problem (Padberg/Rinaldi)
TYPE: TSP
DIMENSION: 50
EDGE_WEIGHT_TYPE : EUC_2D
NODE_COORD_SECTION
1 33 7
2 27 37
3 0 20
4 38 7
5 35 5
6 3 1
7 23 25
8 20 31
9 23 18
10 21 35
11 13 35
12 27 21
13 33 15
14 2 16
15 39 10
16 25 14
17 20 24
18 25 2
19 21 30
20 12 13
21 1 15
22 29 22
23 2 20
24 39 18
25 14 13
26 12 24
27 31 18
28 2 8
29 1 37
30 38 13
31 36 28
32 38 11
33 36 17
34 3 21
35 18 36
36 27 2
37 39 23
38 3 24
39 33 22
40 19 24
41 0 16
42 39 36
43 4 10
44 4 40
45 13 7
46 13 1
47 9 15
48 33 29
49 30 38
50 2 39
